language Essence 1.3

letting blksize_delta be function(1 --> 6, 2 --> 6, 3 --> 6, 4 --> 6, 5 --> 6, 6 --> 6, 7 --> 6, 8 --> 6)
letting maxcars be function(1 --> 10, 2 --> 10, 3 --> 10, 4 --> 10, 5 --> 10, 6 --> 10, 7 --> 10, 8 --> 10)
letting n_cars be 273
letting n_classes be 80
letting n_options be 8
letting quantity be
        function(1 --> 31, 2 --> 3, 3 --> 3, 4 --> 3, 5 --> 3, 6 --> 3, 7 --> 5, 8 --> 3, 9 --> 3, 10 --> 3, 11 --> 3,
                 12 --> 3, 13 --> 3, 14 --> 3, 15 --> 3, 16 --> 3, 17 --> 3, 18 --> 3, 19 --> 3, 20 --> 3, 21 --> 5,
                 22 --> 3, 23 --> 4, 24 --> 3, 25 --> 3, 26 --> 3, 27 --> 3, 28 --> 3, 29 --> 3, 30 --> 3, 31 --> 3,
                 32 --> 3, 33 --> 3, 34 --> 3, 35 --> 3, 36 --> 3, 37 --> 3, 38 --> 3, 39 --> 3, 40 --> 3, 41 --> 3,
                 42 --> 3, 43 --> 3, 44 --> 3, 45 --> 3, 46 --> 3, 47 --> 3, 48 --> 3, 49 --> 3, 50 --> 3, 51 --> 3,
                 52 --> 3, 53 --> 3, 54 --> 3, 55 --> 3, 56 --> 3, 57 --> 3, 58 --> 3, 59 --> 3, 60 --> 3, 61 --> 3,
                 62 --> 3, 63 --> 3, 64 --> 3, 65 --> 3, 66 --> 3, 67 --> 3, 68 --> 3, 69 --> 3, 70 --> 3, 71 --> 3,
                 72 --> 3, 73 --> 3, 74 --> 3, 75 --> 3, 76 --> 3, 77 --> 3, 78 --> 3, 79 --> 3, 80 --> 3)
letting usage be
        relation((1, 2), (1, 3), (1, 4), (2, 6), (3, 8), (4, 1), (4, 4), (4, 6), (5, 8), (6, 4), (6, 5), (6, 7), (6, 8),
                 (7, 7), (8, 3), (8, 5), (8, 6), (9, 1), (9, 2), (10, 1), (10, 5), (11, 6), (11, 7), (12, 8), (13, 3),
                 (13, 5), (13, 7), (14, 2), (14, 8), (15, 8), (16, 6), (17, 8), (18, 8), (19, 2), (19, 8), (20, 8),
                 (21, 3), (21, 5), (21, 6), (21, 7), (21, 8), (22, 2), (23, 3), (24, 2), (24, 4), (24, 7), (25, 3),
                 (25, 5), (25, 6), (25, 7), (26, 2), (26, 4), (26, 6), (27, 1), (27, 2), (27, 6), (28, 2), (28, 3),
                 (28, 6), (29, 8), (30, 7), (31, 1), (31, 2), (32, 1), (32, 3), (32, 7), (33, 3), (33, 4), (34, 1),
                 (34, 6), (35, 2), (35, 4), (35, 5), (35, 8), (36, 1), (36, 4), (36, 8), (37, 5), (38, 4), (39, 3),
                 (39, 4), (39, 5), (40, 4), (40, 5), (41, 8), (42, 1), (42, 4), (42, 5), (42, 7), (43, 7), (44, 3),
                 (44, 6), (45, 2), (45, 3), (45, 6), (45, 7), (46, 3), (46, 4), (46, 5), (46, 6), (47, 5), (47, 7),
                 (48, 5), (48, 8), (49, 1), (49, 3), (49, 8), (50, 5), (51, 3), (51, 6), (52, 2), (52, 5), (53, 8),
                 (54, 8), (55, 1), (55, 2), (55, 6), (55, 8), (56, 4), (56, 5), (56, 6), (57, 2), (57, 3), (57, 6),
                 (57, 7), (57, 8), (58, 3), (58, 4), (58, 6), (59, 1), (59, 2), (59, 3), (60, 1), (60, 6), (61, 3),
                 (62, 1), (62, 6), (62, 7), (62, 8), (63, 1), (63, 7), (64, 3), (64, 5), (65, 8), (66, 7), (67, 4),
                 (68, 1), (69, 8), (70, 5), (71, 3), (71, 6), (71, 8), (72, 1), (72, 2), (72, 7), (73, 2), (74, 3),
                 (74, 5), (75, 5), (76, 8), (77, 4), (77, 5), (77, 8), (78, 4), (78, 5), (79, 7), (80, 1), (80, 2),
                 (80, 3))
$ Visualisation for usage
$  1  2
$  1  3
$  1  4
$  2  6
$  3  8
$  4  1
$  4  4
$  4  6
$  5  8
$  6  4
$  6  5
$  6  7
$  6  8
$  7  7
$  8  3
$  8  5
$  8  6
$  9  1
$  9  2
$ 10  1
$ 10  5
$ 11  6
$ 11  7
$ 12  8
$ 13  3
$ 13  5
$ 13  7
$ 14  2
$ 14  8
$ 15  8
$ 16  6
$ 17  8
$ 18  8
$ 19  2
$ 19  8
$ 20  8
$ 21  3
$ 21  5
$ 21  6
$ 21  7
$ 21  8
$ 22  2
$ 23  3
$ 24  2
$ 24  4
$ 24  7
$ 25  3
$ 25  5
$ 25  6
$ 25  7
$ 26  2
$ 26  4
$ 26  6
$ 27  1
$ 27  2
$ 27  6
$ 28  2
$ 28  3
$ 28  6
$ 29  8
$ 30  7
$ 31  1
$ 31  2
$ 32  1
$ 32  3
$ 32  7
$ 33  3
$ 33  4
$ 34  1
$ 34  6
$ 35  2
$ 35  4
$ 35  5
$ 35  8
$ 36  1
$ 36  4
$ 36  8
$ 37  5
$ 38  4
$ 39  3
$ 39  4
$ 39  5
$ 40  4
$ 40  5
$ 41  8
$ 42  1
$ 42  4
$ 42  5
$ 42  7
$ 43  7
$ 44  3
$ 44  6
$ 45  2
$ 45  3
$ 45  6
$ 45  7
$ 46  3
$ 46  4
$ 46  5
$ 46  6
$ 47  5
$ 47  7
$ 48  5
$ 48  8
$ 49  1
$ 49  3
$ 49  8
$ 50  5
$ 51  3
$ 51  6
$ 52  2
$ 52  5
$ 53  8
$ 54  8
$ 55  1
$ 55  2
$ 55  6
$ 55  8
$ 56  4
$ 56  5
$ 56  6
$ 57  2
$ 57  3
$ 57  6
$ 57  7
$ 57  8
$ 58  3
$ 58  4
$ 58  6
$ 59  1
$ 59  2
$ 59  3
$ 60  1
$ 60  6
$ 61  3
$ 62  1
$ 62  6
$ 62  7
$ 62  8
$ 63  1
$ 63  7
$ 64  3
$ 64  5
$ 65  8
$ 66  7
$ 67  4
$ 68  1
$ 69  8
$ 70  5
$ 71  3
$ 71  6
$ 71  8
$ 72  1
$ 72  2
$ 72  7
$ 73  2
$ 74  3
$ 74  5
$ 75  5
$ 76  8
$ 77  4
$ 77  5
$ 77  8
$ 78  4
$ 78  5
$ 79  7
$ 80  1
$ 80  2
$ 80  3

